\ Model _copy
\ LP format - for model browsing. Use MPS format to capture full model detail.
Maximize
 
Subject To
 R26656: u_159_10 - u_159_19 >= 0.7875842060740728
 R26821: - u_159_10 + u_160_10 = 0
 R26855: - u_159_19 + u_160_19 = 0
 R27017: - u_160_10 + u_161_10 = 0
 R27217: - u_161_10 + u_162_10 = 0
 R27413: - u_162_10 + u_163_10 = 0
 R27611: - u_163_10 + u_164_10 = 0
 R27811: - u_164_10 + u_165_10 = 0
 R28009: - u_165_10 + u_166_10 = 0
 R28207: - u_166_10 + u_167_10 = 0
 R28405: - u_167_10 + u_168_10 = 0
 R28603: - u_168_10 + u_169_10 = 0
 R28801: - u_169_10 + u_170_10 = 0
 R28999: - u_170_10 + u_171_10 = 0
 R29197: - u_171_10 + u_172_10 = 0
 R29395: - u_172_10 + u_173_10 = 0
 R29591: - u_173_10 + u_174_10 = 0
 R29791: - u_174_10 + u_175_10 = 0
 R29989: - u_175_10 + u_176_10 = 0
 R30187: - u_176_10 + u_177_10 = 0
 R30385: - u_177_10 + u_178_10 = 0
 R30583: - u_178_10 + u_179_10 = 0
 R30781: - u_179_10 + u_180_10 = 0
 R30979: - u_180_10 + u_181_10 = 0
 R31177: - u_181_10 + u_182_10 = 0
 R31375: - u_182_10 + u_183_10 = 0
 R31571: - u_183_10 + u_184_10 = 0
 R31771: - u_184_10 + u_185_10 = 0
 R31969: - u_185_10 + u_186_10 = 0
 R32167: - u_186_10 + u_187_10 = 0
 R32365: - u_187_10 + u_188_10 = 0
 R32563: - u_188_10 + u_189_10 = 0
 R32761: - u_189_10 + u_190_10 = 0
 R32959: - u_190_10 + u_191_10 = 0
 R33157: - u_191_10 + u_192_10 = 0
 R33355: - u_192_10 + u_193_10 = 0
 R33553: - u_193_10 + u_194_10 = 0
 R33751: - u_194_10 + u_195_10 = 0
 R33947: - u_195_10 + u_196_10 = 0
 R34145: - u_196_10 + u_197_10 = 0
 R34343: - u_197_10 + u_198_10 = 0
 R34541: - u_198_10 + u_199_10 = 0
 R34739: - u_199_10 + u_200_10 = 0
 R34937: - u_200_10 + u_201_10 = 0
 R35137: - u_201_10 + u_202_10 = 0
 R35335: - u_202_10 + u_203_10 = 0
 R35531: - u_203_10 + u_204_10 = 0
 R35731: - u_204_10 + u_205_10 = 0
 R35929: - u_205_10 + u_206_10 = 0
 R36127: - u_206_10 + u_207_10 = 0
 R36325: - u_207_10 + u_208_10 = 0
 R36521: - u_208_10 + u_209_10 = 0
 R36721: - u_209_10 + u_210_10 = 0
 R36918: - u_211_10 + u_211_37 >= -0.4694935877343287
 R36919: - u_210_10 + u_211_10 = 0
 R37223: - u_211_37 + u_212_37 = 0
 R37421: - u_212_37 + u_213_37 = 0
 R37621: - u_213_37 + u_214_37 = 0
 R37817: - u_214_37 + u_215_37 = 0
 R38015: - u_215_37 + u_216_37 = 0
 R38215: - u_216_37 + u_217_37 = 0
 R38411: - u_217_37 + u_218_37 = 0
 R38609: - u_218_37 + u_219_37 = 0
 R38809: - u_219_37 + u_220_37 = 0
 R39005: - u_220_37 + u_221_37 = 0
 R39203: - u_221_37 + u_222_37 = 0
 R39401: - u_222_37 + u_223_37 = 0
 R39601: - u_223_37 + u_224_37 = 0
 R39797: - u_224_37 + u_225_37 = 0
 R39995: - u_225_37 + u_226_37 = 0
 R40193: - u_226_37 + u_227_37 = 0
 R40391: - u_227_37 + u_228_37 = 0
 R40589: - u_228_37 + u_229_37 = 0
 R40787: - u_229_37 + u_230_37 = 0
 R40985: - u_230_37 + u_231_37 = 0
 R41183: - u_231_37 + u_232_37 = 0
 R41383: - u_232_37 + u_233_37 = 0
 R41581: - u_233_37 + u_234_37 = 0
 R41777: - u_234_37 + u_235_37 = 0
 R41975: - u_235_37 + u_236_37 = 0
 R42173: - u_236_37 + u_237_37 = 0
 R42371: - u_237_37 + u_238_37 = 0
 R42571: - u_238_37 + u_239_37 = 0
 R42769: - u_239_37 + u_240_37 = 0
 R42965: - u_240_37 + u_241_37 = 0
 R43163: - u_241_37 + u_242_37 = 0
 R43361: - u_242_37 + u_243_37 = 0
 R43561: - u_243_37 + u_244_37 = 0
 R43757: - u_244_37 + u_245_37 = 0
 R43957: - u_245_37 + u_246_37 = 0
 R44155: - u_246_37 + u_247_37 = 0
 R44353: - u_247_37 + u_248_37 = 0
 R44549: - u_248_37 + u_249_37 = 0
 R44747: - u_249_37 + u_250_37 = 0
 R44945: - u_250_37 + u_251_37 = 0
 R45143: - u_251_37 + u_252_37 = 0
 R45341: - u_252_37 + u_253_37 = 0
 R45539: - u_253_37 + u_254_37 = 0
 R45737: - u_254_37 + u_255_37 = 0
 R45935: - u_255_37 + u_256_37 = 0
 R46133: - u_256_37 + u_257_37 = 0
 R46331: - u_257_37 + u_258_37 = 0
 R46529: - u_258_37 + u_259_37 = 0
 R46727: - u_259_37 + u_260_37 = 0
 R46925: - u_260_37 + u_261_37 = 0
 R47123: - u_261_37 + u_262_37 = 0
 R47323: - u_262_37 + u_263_37 = 0
 R47519: - u_263_37 + u_264_37 = 0
 R47719: - u_264_37 + u_265_37 = 0
 R47917: - u_265_37 + u_266_37 = 0
 R48113: - u_266_37 + u_267_37 = 0
 R48311: - u_267_37 + u_268_37 = 0
 R48509: - u_268_37 + u_269_37 = 0
 R48709: - u_269_37 + u_270_37 = 0
 R48905: - u_270_37 + u_271_37 = 0
 R49103: - u_271_37 + u_272_37 = 0
 R49301: - u_272_37 + u_273_37 = 0
 R49499: - u_273_37 + u_274_37 = 0
 R49697: - u_274_37 + u_275_37 = 0
 R49895: - u_275_37 + u_276_37 = 0
 R50093: - u_276_37 + u_277_37 = 0
 R50291: - u_277_37 + u_278_37 = 0
 R50491: - u_278_37 + u_279_37 = 0
 R50687: - u_279_37 + u_280_37 = 0
 R50885: - u_280_37 + u_281_37 = 0
 R51083: - u_281_37 + u_282_37 = 0
 R51283: - u_282_37 + u_283_37 = 0
 R51481: - u_283_37 + u_284_37 = 0
 R51677: - u_284_37 + u_285_37 = 0
 R51875: - u_285_37 + u_286_37 = 0
 R52072: u_287_25 - u_287_37 >= 0
 R52073: - u_286_37 + u_287_37 = 0
 R52225: - u_287_25 + u_288_25 = 0
 R52421: - u_288_25 + u_289_25 = 0
 R52621: - u_289_25 + u_290_25 = 0
 R52817: - u_290_25 + u_291_25 = 0
 R53017: - u_291_25 + u_292_25 = 0
 R53213: - u_292_25 + u_293_25 = 0
 R53411: - u_293_25 + u_294_25 = 0
 R53609: - u_294_25 + u_295_25 = 0
 R53807: - u_295_25 + u_296_25 = 0
 R54005: - u_296_25 + u_297_25 = 0
 R54205: - u_297_25 + u_298_25 = 0
 R54403: - u_298_25 + u_299_25 = 0
 R54599: - u_299_25 + u_300_25 = 0
 R54799: - u_300_25 + u_301_25 = 0
 R54995: - u_301_25 + u_302_25 = 0
 R55195: - u_302_25 + u_303_25 = 0
 R55393: - u_303_25 + u_304_25 = 0
 R55591: - u_304_25 + u_305_25 = 0
 R55789: - u_305_25 + u_306_25 = 0
 R55985: - u_306_25 + u_307_25 = 0
 R56185: - u_307_25 + u_308_25 = 0
 R56381: - u_308_25 + u_309_25 = 0
 R56581: - u_309_25 + u_310_25 = 0
 R56779: - u_310_25 + u_311_25 = 0
 R56975: - u_311_25 + u_312_25 = 0
 R57175: - u_312_25 + u_313_25 = 0
 R57371: - u_313_25 + u_314_25 = 0
 R57571: - u_314_25 + u_315_25 = 0
 R57769: - u_315_25 + u_316_25 = 0
 R57967: - u_316_25 + u_317_25 = 0
 R58163: - u_317_25 + u_318_25 = 0
 R58361: - u_318_25 + u_319_25 = 0
 R58561: - u_319_25 + u_320_25 = 0
 R58757: - u_320_25 + u_321_25 = 0
 R58957: - u_321_25 + u_322_25 = 0
 R59153: - u_322_25 + u_323_25 = 0
 R59353: - u_323_25 + u_324_25 = 0
 R59549: - u_324_25 + u_325_25 = 0
 R59749: - u_325_25 + u_326_25 = 0
 R59947: - u_326_25 + u_327_25 = 0
 R60143: - u_327_25 + u_328_25 = 0
 R60341: - u_328_25 + u_329_25 = 0
 R60539: - u_329_25 + u_330_25 = 0
 R60737: - u_330_25 + u_331_25 = 0
 R60935: - u_331_25 + u_332_25 = 0
 R61133: - u_332_25 + u_333_25 = 0
 R61333: - u_333_25 + u_334_25 = 0
 R61529: - u_334_25 + u_335_25 = 0
 R61727: - u_335_25 + u_336_25 = 0
 R61925: - u_336_25 + u_337_25 = 0
 R62125: - u_337_25 + u_338_25 = 0
 R62321: - u_338_25 + u_339_25 = 0
 R62519: - u_339_25 + u_340_25 = 0
 R62719: - u_340_25 + u_341_25 = 0
 R62917: - u_341_25 + u_342_25 = 0
 R63113: - u_342_25 + u_343_25 = 0
 R63313: - u_343_25 + u_344_25 = 0
 R63509: - u_344_25 + u_345_25 = 0
 R63709: - u_345_25 + u_346_25 = 0
 R63907: - u_346_25 + u_347_25 = 0
 R64105: - u_347_25 + u_348_25 = 0
 R64303: - u_348_25 + u_349_25 = 0
 R64501: - u_349_25 + u_350_25 = 0
 R64699: - u_350_25 + u_351_25 = 0
 R64897: - u_351_25 + u_352_25 = 0
 R65093: - u_352_25 + u_353_25 = 0
 R65293: - u_353_25 + u_354_25 = 0
 R65489: - u_354_25 + u_355_25 = 0
 R65689: - u_355_25 + u_356_25 = 0
 R65887: - u_356_25 + u_357_25 = 0
 R66083: - u_357_25 + u_358_25 = 0
 R66281: - u_358_25 + u_359_25 = 0
 R66481: - u_359_25 + u_360_25 = 0
 R66677: - u_360_25 + u_361_25 = 0
 R66875: - u_361_25 + u_362_25 = 0
 R67073: - u_362_25 + u_363_25 = 0
 R67273: - u_363_25 + u_364_25 = 0
 R67471: - u_364_25 + u_365_25 = 0
 R67667: - u_365_25 + u_366_25 = 0
 R67867: - u_366_25 + u_367_25 = 0
 R68063: - u_367_25 + u_368_25 = 0
 R68263: - u_368_25 + u_369_25 = 0
 R68459: - u_369_25 + u_370_25 = 0
 R68656: u_371_8 - u_371_25 >= 0.4203219886141998
 R68657: - u_370_25 + u_371_25 = 0
 R68789: - u_371_8 + u_372_8 = 0
 R68987: - u_372_8 + u_373_8 = 0
 R69185: - u_373_8 + u_374_8 = 0
 R69383: - u_374_8 + u_375_8 = 0
 R69579: - u_375_8 + u_376_8 = 0
 R69779: - u_376_8 + u_377_8 = 0
 R69977: - u_377_8 + u_378_8 = 0
 R70173: - u_378_8 + u_379_8 = 0
 R70373: - u_379_8 + u_380_8 = 0
 R70571: - u_380_8 + u_381_8 = 0
 R70769: - u_381_8 + u_382_8 = 0
 R70967: - u_382_8 + u_383_8 = 0
 R71165: - u_383_8 + u_384_8 = 0
 R71363: - u_384_8 + u_385_8 = 0
 R71561: - u_385_8 + u_386_8 = 0
 R71757: - u_386_8 + u_387_8 = 0
 R71955: - u_387_8 + u_388_8 = 0
 R72155: - u_388_8 + u_389_8 = 0
 R72353: - u_389_8 + u_390_8 = 0
 R72551: - u_390_8 + u_391_8 = 0
 R72749: - u_391_8 + u_392_8 = 0
 R72947: - u_392_8 + u_393_8 = 0
 R73145: - u_393_8 + u_394_8 = 0
 R73343: - u_394_8 + u_395_8 = 0
 R73541: - u_395_8 + u_396_8 = 0
 R73737: - u_396_8 + u_397_8 = 0
 R73937: - u_397_8 + u_398_8 = 0
 R74135: - u_398_8 + u_399_8 = 0
 R74333: - u_399_8 + u_400_8 = 0
 R74531: - u_400_8 + u_401_8 = 0
 R74729: - u_401_8 + u_402_8 = 0
 R74927: - u_402_8 + u_403_8 = 0
 R75125: - u_403_8 + u_404_8 = 0
 R75323: - u_404_8 + u_405_8 = 0
 R75521: - u_405_8 + u_406_8 = 0
 R75719: - u_406_8 + u_407_8 = 0
 R75917: - u_407_8 + u_408_8 = 0
 R76115: - u_408_8 + u_409_8 = 0
 R76311: - u_409_8 + u_410_8 = 0
 R76509: - u_410_8 + u_411_8 = 0
 R76709: - u_411_8 + u_412_8 = 0
 R76905: - u_412_8 + u_413_8 = 0
 R77105: - u_413_8 + u_414_8 = 0
 R77303: - u_414_8 + u_415_8 = 0
 R77501: - u_415_8 + u_416_8 = 0
 R77699: - u_416_8 + u_417_8 = 0
 R77895: - u_417_8 + u_418_8 = 0
 R78093: - u_418_8 + u_419_8 = 0
 R78293: - u_419_8 + u_420_8 = 0
 R78491: - u_420_8 + u_421_8 = 0
 R78689: - u_421_8 + u_422_8 = 0
 R78887: - u_422_8 + u_423_8 = 0
 R79085: - u_423_8 + u_424_8 = 0
 R79283: - u_424_8 + u_425_8 = 0
 R79481: - u_425_8 + u_426_8 = 0
 R79679: - u_426_8 + u_427_8 = 0
 R79877: - u_427_8 + u_428_8 = 0
 R80075: - u_428_8 + u_429_8 = 0
 R80273: - u_429_8 + u_430_8 = 0
 R80471: - u_430_8 + u_431_8 = 0
 R80669: - u_431_8 + u_432_8 = 0
 R80867: - u_432_8 + u_433_8 = 0
 R81065: - u_433_8 + u_434_8 = 0
 R81261: - u_434_8 + u_435_8 = 0
 R81461: - u_435_8 + u_436_8 = 0
 R81659: - u_436_8 + u_437_8 = 0
 R81857: - u_437_8 + u_438_8 = 0
 R82055: - u_438_8 + u_439_8 = 0
 R82252: - u_440_8 + u_440_13 >= -0.3319820996105451
 R82253: - u_439_8 + u_440_8 = 0
 R82469: - u_440_13 + u_441_13 = 0
 R82667: - u_441_13 + u_442_13 = 0
 R82867: - u_442_13 + u_443_13 = 0
 R83065: - u_443_13 + u_444_13 = 0
 R83263: - u_444_13 + u_445_13 = 0
 R83461: - u_445_13 + u_446_13 = 0
 R83659: - u_446_13 + u_447_13 = 0
 R83857: - u_447_13 + u_448_13 = 0
 R84055: - u_448_13 + u_449_13 = 0
 R84253: - u_449_13 + u_450_13 = 0
 R84451: - u_450_13 + u_451_13 = 0
 R84649: - u_451_13 + u_452_13 = 0
 R84845: - u_452_13 + u_453_13 = 0
 R85045: - u_453_13 + u_454_13 = 0
 R85243: - u_454_13 + u_455_13 = 0
 R85441: - u_455_13 + u_456_13 = 0
 R85639: - u_456_13 + u_457_13 = 0
 R85835: - u_457_13 + u_458_13 = 0
 R86033: - u_458_13 + u_459_13 = 0
 R86233: - u_459_13 + u_460_13 = 0
 R86431: - u_460_13 + u_461_13 = 0
 R86629: - u_461_13 + u_462_13 = 0
 R86825: - u_462_13 + u_463_13 = 0
 R87025: - u_463_13 + u_464_13 = 0
 R87223: - u_464_13 + u_465_13 = 0
 R87421: - u_465_13 + u_466_13 = 0
 R87617: - u_466_13 + u_467_13 = 0
 R87817: - u_467_13 + u_468_13 = 0
 R88015: - u_468_13 + u_469_13 = 0
 R88211: - u_469_13 + u_470_13 = 0
 R88409: - u_470_13 + u_471_13 = 0
 R88609: - u_471_13 + u_472_13 = 0
 R88807: - u_472_13 + u_473_13 = 0
 R89005: - u_473_13 + u_474_13 = 0
 R89201: - u_474_13 + u_475_13 = 0
 R89399: - u_475_13 + u_476_13 = 0
 R89599: - u_476_13 + u_477_13 = 0
 R89795: - u_477_13 + u_478_13 = 0
 R89993: - u_478_13 + u_479_13 = 0
 R90191: - u_479_13 + u_480_13 = 0
 R90389: - u_480_13 + u_481_13 = 0
 R90589: - u_481_13 + u_482_13 = 0
 R90787: - u_482_13 + u_483_13 = 0
 R90985: - u_483_13 + u_484_13 = 0
 R91183: - u_484_13 + u_485_13 = 0
 R91381: - u_485_13 + u_486_13 = 0
 R91579: - u_486_13 + u_487_13 = 0
 R91777: - u_487_13 + u_488_13 = 0
 R91975: - u_488_13 + u_489_13 = 0
 R92173: - u_489_13 + u_490_13 = 0
 R92371: - u_490_13 + u_491_13 = 0
 R92569: - u_491_13 + u_492_13 = 0
 R92767: - u_492_13 + u_493_13 = 0
 R92965: - u_493_13 + u_494_13 = 0
 R93161: - u_494_13 + u_495_13 = 0
 R93361: - u_495_13 + u_496_13 = 0
 R93559: - u_496_13 + u_497_13 = 0
 R93757: - u_497_13 + u_498_13 = 0
 R93953: - u_498_13 + u_499_13 = 0
 R94153: - u_499_13 + u_500_13 = 0
 R94351: - u_500_13 + u_501_13 = 0
 R94549: - u_501_13 + u_502_13 = 0
 R94745: - u_502_13 + u_503_13 = 0
 R94943: - u_503_13 + u_504_13 = 0
 R95143: - u_504_13 + u_505_13 = 0
 R95339: - u_505_13 + u_506_13 = 0
 R95539: - u_506_13 + u_507_13 = 0
 R95737: - u_507_13 + u_508_13 = 0
 R95935: - u_508_13 + u_509_13 = 0
 R96133: - u_509_13 + u_510_13 = 0
 R96331: - u_510_13 + u_511_13 = 0
 R96527: - u_511_13 + u_512_13 = 0
 R96725: - u_512_13 + u_513_13 = 0
 R96925: - u_513_13 + u_514_13 = 0
 R97123: - u_514_13 + u_515_13 = 0
 R97319: - u_515_13 + u_516_13 = 0
 R97519: - u_516_13 + u_517_13 = 0
 R97717: - u_517_13 + u_518_13 = 0
 R97915: - u_518_13 + u_519_13 = 0
 R98113: - u_519_13 + u_520_13 = 0
 R98311: - u_520_13 + u_521_13 = 0
 R98507: - u_521_13 + u_522_13 = 0
 R98706: - u_523_13 + u_523_35 >= 0.464048204833079
 R98707: - u_522_13 + u_523_13 = 0
 R98991: - u_523_35 + u_524_35 = 0
 R99189: - u_524_35 + u_525_35 = 0
 R99387: - u_525_35 + u_526_35 = 0
 R99585: - u_526_35 + u_527_35 = 0
 R99783: - u_527_35 + u_528_35 = 0
 R99981: - u_528_35 + u_529_35 = 0
 R100181: - u_529_35 + u_530_35 = 0
 R100377: - u_530_35 + u_531_35 = 0
 R100577: - u_531_35 + u_532_35 = 0
 R100773: - u_532_35 + u_533_35 = 0
 R100971: - u_533_35 + u_534_35 = 0
 R101169: - u_534_35 + u_535_35 = 0
 R101367: - u_535_35 + u_536_35 = 0
 R101565: - u_536_35 + u_537_35 = 0
 R101765: - u_537_35 + u_538_35 = 0
 R101961: - u_538_35 + u_539_35 = 0
 R102159: - u_539_35 + u_540_35 = 0
 R102357: - u_540_35 + u_541_35 = 0
 R102555: - u_541_35 + u_542_35 = 0
 R102753: - u_542_35 + u_543_35 = 0
 R102953: - u_543_35 + u_544_35 = 0
 R103151: - u_544_35 + u_545_35 = 0
 R103347: - u_545_35 + u_546_35 = 0
 R103547: - u_546_35 + u_547_35 = 0
 R103743: - u_547_35 + u_548_35 = 0
 R103941: - u_548_35 + u_549_35 = 0
 R104141: - u_549_35 + u_550_35 = 0
 R104337: - u_550_35 + u_551_35 = 0
 R104537: - u_551_35 + u_552_35 = 0
 R104733: - u_552_35 + u_553_35 = 0
 R104933: - u_553_35 + u_554_35 = 0
 R105129: - u_554_35 + u_555_35 = 0
 R105329: - u_555_35 + u_556_35 = 0
 R105525: - u_556_35 + u_557_35 = 0
 R105723: - u_557_35 + u_558_35 = 0
 R105921: - u_558_35 + u_559_35 = 0
 R106119: - u_559_35 + u_560_35 = 0
 R106317: - u_560_35 + u_561_35 = 0
 R106515: - u_561_35 + u_562_35 = 0
 R106713: - u_562_35 + u_563_35 = 0
 R106911: - u_563_35 + u_564_35 = 0
 R107111: - u_564_35 + u_565_35 = 0
 R107307: - u_565_35 + u_566_35 = 0
 R107505: - u_566_35 + u_567_35 = 0
 R107703: - u_567_35 + u_568_35 = 0
 R107901: - u_568_35 + u_569_35 = 0
 R108101: - u_569_35 + u_570_35 = 0
 R108297: - u_570_35 + u_571_35 = 0
 R108495: - u_571_35 + u_572_35 = 0
 R108694: - u_573_35 + u_573_44 >= 0
 R108695: - u_572_35 + u_573_35 = 0
 R108927: - u_573_44 + u_574_44 = 0
 R109125: - u_574_44 + u_575_44 = 0
 R109325: - u_575_44 + u_576_44 = 0
 R109521: - u_576_44 + u_577_44 = 0
 R109719: - u_577_44 + u_578_44 = 0
 R109917: - u_578_44 + u_579_44 = 0
 R110115: - u_579_44 + u_580_44 = 0
 R110313: - u_580_44 + u_581_44 = 0
 R110511: - u_581_44 + u_582_44 = 0
 R110709: - u_582_44 + u_583_44 = 0
 R110907: - u_583_44 + u_584_44 = 0
 R111105: - u_584_44 + u_585_44 = 0
 R111303: - u_585_44 + u_586_44 = 0
 R111501: - u_586_44 + u_587_44 = 0
 R111699: - u_587_44 + u_588_44 = 0
 R111897: - u_588_44 + u_589_44 = 0
 R112097: - u_589_44 + u_590_44 = 0
 R112293: - u_590_44 + u_591_44 = 0
 R112491: - u_591_44 + u_592_44 = 0
 R112691: - u_592_44 + u_593_44 = 0
 R112887: - u_593_44 + u_594_44 = 0
 R113085: - u_594_44 + u_595_44 = 0
 R113283: - u_595_44 + u_596_44 = 0
 R113481: - u_596_44 + u_597_44 = 0
 R113679: - u_597_44 + u_598_44 = 0
 R113879: - u_598_44 + u_599_44 = 0
 R114075: - u_599_44 + u_600_44 = 0
 R114273: - u_600_44 + u_601_44 = 0
 R114471: - u_601_44 + u_602_44 = 0
 R114669: - u_602_44 + u_603_44 = 0
 R114867: - u_603_44 + u_604_44 = 0
 R115065: - u_604_44 + u_605_44 = 0
 R115263: - u_605_44 + u_606_44 = 0
 R115461: - u_606_44 + u_607_44 = 0
 R115659: - u_607_44 + u_608_44 = 0
 R115857: - u_608_44 + u_609_44 = 0
 R116055: - u_609_44 + u_610_44 = 0
 R116253: - u_610_44 + u_611_44 = 0
 R116451: - u_611_44 + u_612_44 = 0
 R116649: - u_612_44 + u_613_44 = 0
 R116847: - u_613_44 + u_614_44 = 0
 R117047: - u_614_44 + u_615_44 = 0
 R117245: - u_615_44 + u_616_44 = 0
 R117441: - u_616_44 + u_617_44 = 0
 R117639: - u_617_44 + u_618_44 = 0
 R117837: - u_618_44 + u_619_44 = 0
 R118035: - u_619_44 + u_620_44 = 0
 R118233: - u_620_44 + u_621_44 = 0
 R118431: - u_621_44 + u_622_44 = 0
 R118629: - u_622_44 + u_623_44 = 0
 R118827: - u_623_44 + u_624_44 = 0
 R119027: - u_624_44 + u_625_44 = 0
 R119225: - u_625_44 + u_626_44 = 0
 R119421: - u_626_44 + u_627_44 = 0
 R119619: - u_627_44 + u_628_44 = 0
 R119817: - u_628_44 + u_629_44 = 0
 R120015: - u_629_44 + u_630_44 = 0
 R120213: - u_630_44 + u_631_44 = 0
 R120411: - u_631_44 + u_632_44 = 0
 R120609: - u_632_44 + u_633_44 = 0
 R120807: - u_633_44 + u_634_44 = 0
 R121005: - u_634_44 + u_635_44 = 0
 R121203: - u_635_44 + u_636_44 = 0
 R121401: - u_636_44 + u_637_44 = 0
 R121599: - u_637_44 + u_638_44 = 0
 R121797: - u_638_44 + u_639_44 = 0
 R121995: - u_639_44 + u_640_44 = 0
 R122193: - u_640_44 + u_641_44 = 0
 R122391: - u_641_44 + u_642_44 = 0
 R122589: - u_642_44 + u_643_44 = 0
 R122786: u_644_1 - u_644_44 >= 0.0612364164105366
 R122787: - u_643_44 + u_644_44 = 0
 R122815: - u_644_1 + u_645_1 = 0
 R123013: - u_645_1 + u_646_1 = 0
 R123211: - u_646_1 + u_647_1 = 0
 R123409: - u_647_1 + u_648_1 = 0
 R123607: - u_648_1 + u_649_1 = 0
 R123805: - u_649_1 + u_650_1 = 0
 R124003: - u_650_1 + u_651_1 = 0
 R124201: - u_651_1 + u_652_1 = 0
 R124399: - u_652_1 + u_653_1 = 0
 R124597: - u_653_1 + u_654_1 = 0
 R124795: - u_654_1 + u_655_1 = 0
 R124993: - u_655_1 + u_656_1 = 0
 R125191: - u_656_1 + u_657_1 = 0
 R125389: - u_657_1 + u_658_1 = 0
 R125587: - u_658_1 + u_659_1 = 0
 R125785: - u_659_1 + u_660_1 = 0
 R125983: - u_660_1 + u_661_1 = 0
 R126181: - u_661_1 + u_662_1 = 0
 R126379: - u_662_1 + u_663_1 = 0
 R126577: - u_663_1 + u_664_1 = 0
 R126775: - u_664_1 + u_665_1 = 0
 R126973: - u_665_1 + u_666_1 = 0
 R127171: - u_666_1 + u_667_1 = 0
 R127367: - u_667_1 + u_668_1 = 0
 R127567: - u_668_1 + u_669_1 = 0
 R127765: - u_669_1 + u_670_1 = 0
 R127963: - u_670_1 + u_671_1 = 0
 R128161: - u_671_1 + u_672_1 = 0
 R128359: - u_672_1 + u_673_1 = 0
 R128557: - u_673_1 + u_674_1 = 0
 R128755: - u_674_1 + u_675_1 = 0
 R128953: - u_675_1 + u_676_1 = 0
 R129151: - u_676_1 + u_677_1 = 0
 R129349: - u_677_1 + u_678_1 = 0
 R129547: - u_678_1 + u_679_1 = 0
 R129745: - u_679_1 + u_680_1 = 0
 R129943: - u_680_1 + u_681_1 = 0
 R130141: - u_681_1 + u_682_1 = 0
 R130339: - u_682_1 + u_683_1 = 0
 R130537: - u_683_1 + u_684_1 = 0
 R130735: - u_684_1 + u_685_1 = 0
 R130933: - u_685_1 + u_686_1 = 0
 R131131: - u_686_1 + u_687_1 = 0
 R131329: - u_687_1 + u_688_1 = 0
 R131527: - u_688_1 + u_689_1 = 0
 R131725: - u_689_1 + u_690_1 = 0
 R131923: - u_690_1 + u_691_1 = 0
 R132121: - u_691_1 + u_692_1 = 0
 R132319: - u_692_1 + u_693_1 = 0
 R132517: - u_693_1 + u_694_1 = 0
 R132714: - u_695_1 + u_695_12 >= 0.0497648709327201
 R132715: - u_694_1 + u_695_1 = 0
 R132957: - u_695_12 + u_696_12 = 0
 R133155: - u_696_12 + u_697_12 = 0
 R133351: - u_697_12 + u_698_12 = 0
 R133549: - u_698_12 + u_699_12 = 0
 R133747: - u_699_12 + u_700_12 = 0
 R133947: - u_700_12 + u_701_12 = 0
 R134145: - u_701_12 + u_702_12 = 0
 R134341: - u_702_12 + u_703_12 = 0
 R134539: - u_703_12 + u_704_12 = 0
 R134739: - u_704_12 + u_705_12 = 0
 R134937: - u_705_12 + u_706_12 = 0
 R135135: - u_706_12 + u_707_12 = 0
 R135333: - u_707_12 + u_708_12 = 0
 R135531: - u_708_12 + u_709_12 = 0
 R135729: - u_709_12 + u_710_12 = 0
 R135925: - u_710_12 + u_711_12 = 0
 R136125: - u_711_12 + u_712_12 = 0
 R136323: - u_712_12 + u_713_12 = 0
 R136521: - u_713_12 + u_714_12 = 0
 R136717: - u_714_12 + u_715_12 = 0
 R136915: - u_715_12 + u_716_12 = 0
 R137115: - u_716_12 + u_717_12 = 0
 R137313: - u_717_12 + u_718_12 = 0
 R137509: - u_718_12 + u_719_12 = 0
 R137709: - u_719_12 + u_720_12 = 0
 R137907: - u_720_12 + u_721_12 = 0
 R138105: - u_721_12 + u_722_12 = 0
 R138303: - u_722_12 + u_723_12 = 0
 R138501: - u_723_12 + u_724_12 = 0
 R138699: - u_724_12 + u_725_12 = 0
 R138897: - u_725_12 + u_726_12 = 0
 R139095: - u_726_12 + u_727_12 = 0
 R139291: - u_727_12 + u_728_12 = 0
 R139491: - u_728_12 + u_729_12 = 0
 R139689: - u_729_12 + u_730_12 = 0
 R139887: - u_730_12 + u_731_12 = 0
 R140083: - u_731_12 + u_732_12 = 0
 R140283: - u_732_12 + u_733_12 = 0
 R140479: - u_733_12 + u_734_12 = 0
 R140679: - u_734_12 + u_735_12 = 0
 R140877: - u_735_12 + u_736_12 = 0
 R141075: - u_736_12 + u_737_12 = 0
 R141273: - u_737_12 + u_738_12 = 0
 R141469: - u_738_12 + u_739_12 = 0
 R141669: - u_739_12 + u_740_12 = 0
 R141867: - u_740_12 + u_741_12 = 0
 R142063: - u_741_12 + u_742_12 = 0
 R142261: - u_742_12 + u_743_12 = 0
 R142461: - u_743_12 + u_744_12 = 0
 R142659: - u_744_12 + u_745_12 = 0
 R142857: - u_745_12 + u_746_12 = 0
 R143053: - u_746_12 + u_747_12 = 0
 R143253: - u_747_12 + u_748_12 = 0
 R143451: - u_748_12 + u_749_12 = 0
 R143646: u_750_5 - u_750_12 >= 0.0414765315638284
 R143647: - u_749_12 + u_750_12 = 0
 R143819: - u_750_5 + u_751_5 = 0
 R144017: - u_751_5 + u_752_5 = 0
 R144215: - u_752_5 + u_753_5 = 0
 R144413: - u_753_5 + u_754_5 = 0
 R144611: - u_754_5 + u_755_5 = 0
 R144807: - u_755_5 + u_756_5 = 0
 R145007: - u_756_5 + u_757_5 = 0
 R145205: - u_757_5 + u_758_5 = 0
 R145403: - u_758_5 + u_759_5 = 0
 R145601: - u_759_5 + u_760_5 = 0
 R145799: - u_760_5 + u_761_5 = 0
 R145997: - u_761_5 + u_762_5 = 0
 R146195: - u_762_5 + u_763_5 = 0
 R146393: - u_763_5 + u_764_5 = 0
 R146591: - u_764_5 + u_765_5 = 0
 R146789: - u_765_5 + u_766_5 = 0
 R146987: - u_766_5 + u_767_5 = 0
 R147185: - u_767_5 + u_768_5 = 0
 R147383: - u_768_5 + u_769_5 = 0
 R147581: - u_769_5 + u_770_5 = 0
 R147779: - u_770_5 + u_771_5 = 0
 R147975: - u_771_5 + u_772_5 = 0
 R148175: - u_772_5 + u_773_5 = 0
 R148373: - u_773_5 + u_774_5 = 0
 R148571: - u_774_5 + u_775_5 = 0
 R148769: - u_775_5 + u_776_5 = 0
 R148965: - u_776_5 + u_777_5 = 0
 R149165: - u_777_5 + u_778_5 = 0
 R149361: - u_778_5 + u_779_5 = 0
 R149561: - u_779_5 + u_780_5 = 0
 R149759: - u_780_5 + u_781_5 = 0
 R149957: - u_781_5 + u_782_5 = 0
 R150155: - u_782_5 + u_783_5 = 0
 R150353: - u_783_5 + u_784_5 = 0
 R150551: - u_784_5 + u_785_5 = 0
 R150747: - u_785_5 + u_786_5 = 0
 R150947: - u_786_5 + u_787_5 = 0
 R151145: - u_787_5 + u_788_5 = 0
 R151343: - u_788_5 + u_789_5 = 0
 R151541: - u_789_5 + u_790_5 = 0
 R151738: - u_791_5 + u_791_36 >= 0.0352585490489505
 R151739: - u_790_5 + u_791_5 = 0
 R151863: u_791_36 <= 1
Bounds
 u_159_10 free
 u_159_19 free
 u_160_10 free
 u_161_10 free
 u_162_10 free
 u_163_10 free
 u_164_10 free
 u_165_10 free
 u_166_10 free
 u_167_10 free
 u_168_10 free
 u_169_10 free
 u_170_10 free
 u_171_10 free
 u_172_10 free
 u_173_10 free
 u_174_10 free
 u_175_10 free
 u_176_10 free
 u_177_10 free
 u_178_10 free
 u_179_10 free
 u_180_10 free
 u_181_10 free
 u_182_10 free
 u_183_10 free
 u_184_10 free
 u_185_10 free
 u_186_10 free
 u_187_10 free
 u_188_10 free
 u_189_10 free
 u_190_10 free
 u_191_10 free
 u_192_10 free
 u_193_10 free
 u_194_10 free
 u_195_10 free
 u_196_10 free
 u_197_10 free
 u_198_10 free
 u_199_10 free
 u_200_10 free
 u_201_10 free
 u_202_10 free
 u_203_10 free
 u_204_10 free
 u_205_10 free
 u_206_10 free
 u_207_10 free
 u_208_10 free
 u_209_10 free
 u_210_10 free
 u_211_10 free
 u_211_37 free
 u_212_37 free
 u_213_37 free
 u_214_37 free
 u_215_37 free
 u_216_37 free
 u_217_37 free
 u_218_37 free
 u_219_37 free
 u_220_37 free
 u_221_37 free
 u_222_37 free
 u_223_37 free
 u_224_37 free
 u_225_37 free
 u_226_37 free
 u_227_37 free
 u_228_37 free
 u_229_37 free
 u_230_37 free
 u_231_37 free
 u_232_37 free
 u_233_37 free
 u_234_37 free
 u_235_37 free
 u_236_37 free
 u_237_37 free
 u_238_37 free
 u_239_37 free
 u_240_37 free
 u_241_37 free
 u_242_37 free
 u_243_37 free
 u_244_37 free
 u_245_37 free
 u_246_37 free
 u_247_37 free
 u_248_37 free
 u_249_37 free
 u_250_37 free
 u_251_37 free
 u_252_37 free
 u_253_37 free
 u_254_37 free
 u_255_37 free
 u_256_37 free
 u_257_37 free
 u_258_37 free
 u_259_37 free
 u_260_37 free
 u_261_37 free
 u_262_37 free
 u_263_37 free
 u_264_37 free
 u_265_37 free
 u_266_37 free
 u_267_37 free
 u_268_37 free
 u_269_37 free
 u_270_37 free
 u_271_37 free
 u_272_37 free
 u_273_37 free
 u_274_37 free
 u_275_37 free
 u_276_37 free
 u_277_37 free
 u_278_37 free
 u_279_37 free
 u_280_37 free
 u_281_37 free
 u_282_37 free
 u_283_37 free
 u_284_37 free
 u_285_37 free
 u_286_37 free
 u_287_25 free
 u_287_37 free
 u_288_25 free
 u_289_25 free
 u_290_25 free
 u_291_25 free
 u_292_25 free
 u_293_25 free
 u_294_25 free
 u_295_25 free
 u_296_25 free
 u_297_25 free
 u_298_25 free
 u_299_25 free
 u_300_25 free
 u_301_25 free
 u_302_25 free
 u_303_25 free
 u_304_25 free
 u_305_25 free
 u_306_25 free
 u_307_25 free
 u_308_25 free
 u_309_25 free
 u_310_25 free
 u_311_25 free
 u_312_25 free
 u_313_25 free
 u_314_25 free
 u_315_25 free
 u_316_25 free
 u_317_25 free
 u_318_25 free
 u_319_25 free
 u_320_25 free
 u_321_25 free
 u_322_25 free
 u_323_25 free
 u_324_25 free
 u_325_25 free
 u_326_25 free
 u_327_25 free
 u_328_25 free
 u_329_25 free
 u_330_25 free
 u_331_25 free
 u_332_25 free
 u_333_25 free
 u_334_25 free
 u_335_25 free
 u_336_25 free
 u_337_25 free
 u_338_25 free
 u_339_25 free
 u_340_25 free
 u_341_25 free
 u_342_25 free
 u_343_25 free
 u_344_25 free
 u_345_25 free
 u_346_25 free
 u_347_25 free
 u_348_25 free
 u_349_25 free
 u_350_25 free
 u_351_25 free
 u_352_25 free
 u_353_25 free
 u_354_25 free
 u_355_25 free
 u_356_25 free
 u_357_25 free
 u_358_25 free
 u_359_25 free
 u_360_25 free
 u_361_25 free
 u_362_25 free
 u_363_25 free
 u_364_25 free
 u_365_25 free
 u_366_25 free
 u_367_25 free
 u_368_25 free
 u_369_25 free
 u_370_25 free
 u_371_8 free
 u_371_25 free
 u_372_8 free
 u_373_8 free
 u_374_8 free
 u_375_8 free
 u_376_8 free
 u_377_8 free
 u_378_8 free
 u_379_8 free
 u_380_8 free
 u_381_8 free
 u_382_8 free
 u_383_8 free
 u_384_8 free
 u_385_8 free
 u_386_8 free
 u_387_8 free
 u_388_8 free
 u_389_8 free
 u_390_8 free
 u_391_8 free
 u_392_8 free
 u_393_8 free
 u_394_8 free
 u_395_8 free
 u_396_8 free
 u_397_8 free
 u_398_8 free
 u_399_8 free
 u_400_8 free
 u_401_8 free
 u_402_8 free
 u_403_8 free
 u_404_8 free
 u_405_8 free
 u_406_8 free
 u_407_8 free
 u_408_8 free
 u_409_8 free
 u_410_8 free
 u_411_8 free
 u_412_8 free
 u_413_8 free
 u_414_8 free
 u_415_8 free
 u_416_8 free
 u_417_8 free
 u_418_8 free
 u_419_8 free
 u_420_8 free
 u_421_8 free
 u_422_8 free
 u_423_8 free
 u_424_8 free
 u_425_8 free
 u_426_8 free
 u_427_8 free
 u_428_8 free
 u_429_8 free
 u_430_8 free
 u_431_8 free
 u_432_8 free
 u_433_8 free
 u_434_8 free
 u_435_8 free
 u_436_8 free
 u_437_8 free
 u_438_8 free
 u_439_8 free
 u_440_8 free
 u_440_13 free
 u_441_13 free
 u_442_13 free
 u_443_13 free
 u_444_13 free
 u_445_13 free
 u_446_13 free
 u_447_13 free
 u_448_13 free
 u_449_13 free
 u_450_13 free
 u_451_13 free
 u_452_13 free
 u_453_13 free
 u_454_13 free
 u_455_13 free
 u_456_13 free
 u_457_13 free
 u_458_13 free
 u_459_13 free
 u_460_13 free
 u_461_13 free
 u_462_13 free
 u_463_13 free
 u_464_13 free
 u_465_13 free
 u_466_13 free
 u_467_13 free
 u_468_13 free
 u_469_13 free
 u_470_13 free
 u_471_13 free
 u_472_13 free
 u_473_13 free
 u_474_13 free
 u_475_13 free
 u_476_13 free
 u_477_13 free
 u_478_13 free
 u_479_13 free
 u_480_13 free
 u_481_13 free
 u_482_13 free
 u_483_13 free
 u_484_13 free
 u_485_13 free
 u_486_13 free
 u_487_13 free
 u_488_13 free
 u_489_13 free
 u_490_13 free
 u_491_13 free
 u_492_13 free
 u_493_13 free
 u_494_13 free
 u_495_13 free
 u_496_13 free
 u_497_13 free
 u_498_13 free
 u_499_13 free
 u_500_13 free
 u_501_13 free
 u_502_13 free
 u_503_13 free
 u_504_13 free
 u_505_13 free
 u_506_13 free
 u_507_13 free
 u_508_13 free
 u_509_13 free
 u_510_13 free
 u_511_13 free
 u_512_13 free
 u_513_13 free
 u_514_13 free
 u_515_13 free
 u_516_13 free
 u_517_13 free
 u_518_13 free
 u_519_13 free
 u_520_13 free
 u_521_13 free
 u_522_13 free
 u_523_13 free
 u_523_35 free
 u_524_35 free
 u_525_35 free
 u_526_35 free
 u_527_35 free
 u_528_35 free
 u_529_35 free
 u_530_35 free
 u_531_35 free
 u_532_35 free
 u_533_35 free
 u_534_35 free
 u_535_35 free
 u_536_35 free
 u_537_35 free
 u_538_35 free
 u_539_35 free
 u_540_35 free
 u_541_35 free
 u_542_35 free
 u_543_35 free
 u_544_35 free
 u_545_35 free
 u_546_35 free
 u_547_35 free
 u_548_35 free
 u_549_35 free
 u_550_35 free
 u_551_35 free
 u_552_35 free
 u_553_35 free
 u_554_35 free
 u_555_35 free
 u_556_35 free
 u_557_35 free
 u_558_35 free
 u_559_35 free
 u_560_35 free
 u_561_35 free
 u_562_35 free
 u_563_35 free
 u_564_35 free
 u_565_35 free
 u_566_35 free
 u_567_35 free
 u_568_35 free
 u_569_35 free
 u_570_35 free
 u_571_35 free
 u_572_35 free
 u_573_35 free
 u_573_44 free
 u_574_44 free
 u_575_44 free
 u_576_44 free
 u_577_44 free
 u_578_44 free
 u_579_44 free
 u_580_44 free
 u_581_44 free
 u_582_44 free
 u_583_44 free
 u_584_44 free
 u_585_44 free
 u_586_44 free
 u_587_44 free
 u_588_44 free
 u_589_44 free
 u_590_44 free
 u_591_44 free
 u_592_44 free
 u_593_44 free
 u_594_44 free
 u_595_44 free
 u_596_44 free
 u_597_44 free
 u_598_44 free
 u_599_44 free
 u_600_44 free
 u_601_44 free
 u_602_44 free
 u_603_44 free
 u_604_44 free
 u_605_44 free
 u_606_44 free
 u_607_44 free
 u_608_44 free
 u_609_44 free
 u_610_44 free
 u_611_44 free
 u_612_44 free
 u_613_44 free
 u_614_44 free
 u_615_44 free
 u_616_44 free
 u_617_44 free
 u_618_44 free
 u_619_44 free
 u_620_44 free
 u_621_44 free
 u_622_44 free
 u_623_44 free
 u_624_44 free
 u_625_44 free
 u_626_44 free
 u_627_44 free
 u_628_44 free
 u_629_44 free
 u_630_44 free
 u_631_44 free
 u_632_44 free
 u_633_44 free
 u_634_44 free
 u_635_44 free
 u_636_44 free
 u_637_44 free
 u_638_44 free
 u_639_44 free
 u_640_44 free
 u_641_44 free
 u_642_44 free
 u_643_44 free
 u_644_1 free
 u_644_44 free
 u_645_1 free
 u_646_1 free
 u_647_1 free
 u_648_1 free
 u_649_1 free
 u_650_1 free
 u_651_1 free
 u_652_1 free
 u_653_1 free
 u_654_1 free
 u_655_1 free
 u_656_1 free
 u_657_1 free
 u_658_1 free
 u_659_1 free
 u_660_1 free
 u_661_1 free
 u_662_1 free
 u_663_1 free
 u_664_1 free
 u_665_1 free
 u_666_1 free
 u_667_1 free
 u_668_1 free
 u_669_1 free
 u_670_1 free
 u_671_1 free
 u_672_1 free
 u_673_1 free
 u_674_1 free
 u_675_1 free
 u_676_1 free
 u_677_1 free
 u_678_1 free
 u_679_1 free
 u_680_1 free
 u_681_1 free
 u_682_1 free
 u_683_1 free
 u_684_1 free
 u_685_1 free
 u_686_1 free
 u_687_1 free
 u_688_1 free
 u_689_1 free
 u_690_1 free
 u_691_1 free
 u_692_1 free
 u_693_1 free
 u_694_1 free
 u_695_1 free
 u_695_12 free
 u_696_12 free
 u_697_12 free
 u_698_12 free
 u_699_12 free
 u_700_12 free
 u_701_12 free
 u_702_12 free
 u_703_12 free
 u_704_12 free
 u_705_12 free
 u_706_12 free
 u_707_12 free
 u_708_12 free
 u_709_12 free
 u_710_12 free
 u_711_12 free
 u_712_12 free
 u_713_12 free
 u_714_12 free
 u_715_12 free
 u_716_12 free
 u_717_12 free
 u_718_12 free
 u_719_12 free
 u_720_12 free
 u_721_12 free
 u_722_12 free
 u_723_12 free
 u_724_12 free
 u_725_12 free
 u_726_12 free
 u_727_12 free
 u_728_12 free
 u_729_12 free
 u_730_12 free
 u_731_12 free
 u_732_12 free
 u_733_12 free
 u_734_12 free
 u_735_12 free
 u_736_12 free
 u_737_12 free
 u_738_12 free
 u_739_12 free
 u_740_12 free
 u_741_12 free
 u_742_12 free
 u_743_12 free
 u_744_12 free
 u_745_12 free
 u_746_12 free
 u_747_12 free
 u_748_12 free
 u_749_12 free
 u_750_5 free
 u_750_12 free
 u_751_5 free
 u_752_5 free
 u_753_5 free
 u_754_5 free
 u_755_5 free
 u_756_5 free
 u_757_5 free
 u_758_5 free
 u_759_5 free
 u_760_5 free
 u_761_5 free
 u_762_5 free
 u_763_5 free
 u_764_5 free
 u_765_5 free
 u_766_5 free
 u_767_5 free
 u_768_5 free
 u_769_5 free
 u_770_5 free
 u_771_5 free
 u_772_5 free
 u_773_5 free
 u_774_5 free
 u_775_5 free
 u_776_5 free
 u_777_5 free
 u_778_5 free
 u_779_5 free
 u_780_5 free
 u_781_5 free
 u_782_5 free
 u_783_5 free
 u_784_5 free
 u_785_5 free
 u_786_5 free
 u_787_5 free
 u_788_5 free
 u_789_5 free
 u_790_5 free
 u_791_5 free
 u_791_36 free
End
